(set-logic QF_UF)
(declare-fun A0 () Bool)
(declare-fun A1 () Bool)
(declare-fun A2 () Bool)
(declare-fun A3 () Bool)
(declare-fun A4 () Bool)
(declare-fun A5 () Bool)
(declare-fun A6 () Bool)
(declare-fun A7 () Bool)
(declare-fun A8 () Bool)
(declare-fun A9 () Bool)
(declare-fun A10 () Bool)
(declare-fun A11 () Bool)
(declare-fun A12 () Bool)
(declare-fun A13 () Bool)
(declare-fun A14 () Bool)
(declare-fun A15 () Bool)
(declare-fun A17 () Bool)
(declare-fun A18 () Bool)
(declare-fun A19 () Bool)
(declare-fun A20 () Bool)
(declare-fun A21 () Bool)
(declare-fun A22 () Bool)
(declare-fun A23 () Bool)
(declare-fun A24 () Bool)
(assert (let ((.def_0 (not A3))) (let ((.def_1 (not A19))) (let ((.def_2 (or .def_1 .def_0))) (let ((.def_3 (not A13))) (let ((.def_4 (and A17 .def_3))) (let ((.def_5 (and .def_4 .def_2))) (let ((.def_6 (not A4))) (let ((.def_7 (or A6 .def_6))) (let ((.def_8 (not A20))) (let ((.def_9 (not A12))) (let ((.def_10 (= .def_9 .def_8))) (let ((.def_11 (not .def_10))) (let ((.def_12 (or .def_11 .def_7))) (let ((.def_13 (not .def_12))) (let ((.def_14 (and .def_13 .def_5))) (let ((.def_15 (not .def_14))) (let ((.def_16 (or .def_0 A7))) (let ((.def_17 (and A12 .def_9))) (let ((.def_18 (not .def_17))) (let ((.def_19 (or .def_18 .def_16))) (let ((.def_20 (and A15 .def_0))) (let ((.def_21 (not A21))) (let ((.def_22 (and A1 .def_21))) (let ((.def_23 (not .def_22))) (let ((.def_24 (or .def_23 .def_20))) (let ((.def_25 (not .def_24))) (let ((.def_26 (and .def_25 .def_19))) (let ((.def_27 (and .def_26 .def_15))) (let ((.def_28 (not A2))) (let ((.def_29 (not A0))) (let ((.def_30 (or .def_29 .def_28))) (let ((.def_31 (not A6))) (let ((.def_32 (or .def_31 A11))) (let ((.def_33 (or .def_32 .def_30))) (let ((.def_34 (not .def_33))) (let ((.def_35 (not A14))) (let ((.def_36 (or A4 .def_35))) (let ((.def_37 (not .def_36))) (let ((.def_38 (and A18 .def_21))) (let ((.def_39 (not .def_38))) (let ((.def_40 (or .def_39 .def_37))) (let ((.def_41 (not .def_40))) (let ((.def_42 (or .def_41 .def_34))) (let ((.def_43 (not .def_42))) (let ((.def_44 (not A8))) (let ((.def_45 (and A11 .def_44))) (let ((.def_46 (not .def_45))) (let ((.def_47 (not A5))) (let ((.def_48 (not A22))) (let ((.def_49 (and .def_48 .def_47))) (let ((.def_50 (not .def_49))) (let ((.def_51 (and .def_50 .def_46))) (let ((.def_52 (not .def_51))) (let ((.def_53 (or .def_9 A17))) (let ((.def_54 (not .def_53))) (let ((.def_55 (not A7))) (let ((.def_56 (or .def_55 A7))) (let ((.def_57 (and .def_56 .def_54))) (let ((.def_58 (not .def_57))) (let ((.def_59 (and .def_58 .def_52))) (let ((.def_60 (and .def_59 .def_43))) (let ((.def_61 (not .def_60))) (let ((.def_62 (or .def_61 .def_27))) (let ((.def_63 (not .def_62))) (let ((.def_64 (and .def_9 A6))) (let ((.def_65 (not .def_64))) (let ((.def_66 (not A11))) (let ((.def_67 (or A0 .def_66))) (let ((.def_68 (not .def_67))) (let ((.def_69 (and .def_68 .def_65))) (let ((.def_70 (not .def_69))) (let ((.def_71 (and A19 A15))) (let ((.def_72 (or A5 A22))) (let ((.def_73 (not .def_72))) (let ((.def_74 (and .def_73 .def_71))) (let ((.def_75 (= .def_74 .def_70))) (let ((.def_76 (not .def_75))) (let ((.def_77 (not A10))) (let ((.def_78 (and .def_77 .def_3))) (let ((.def_79 (not .def_78))) (let ((.def_80 (not A23))) (let ((.def_81 (or .def_80 A17))) (let ((.def_82 (not .def_81))) (let ((.def_83 (and .def_82 .def_79))) (let ((.def_84 (not A24))) (let ((.def_85 (not A9))) (let ((.def_86 (or .def_85 .def_84))) (let ((.def_87 (and A12 A8))) (let ((.def_88 (and .def_87 .def_86))) (let ((.def_89 (or .def_88 .def_83))) (let ((.def_90 (= .def_89 .def_76))) (let ((.def_91 (not A15))) (let ((.def_92 (= A10 .def_91))) (let ((.def_93 (not .def_92))) (let ((.def_94 (and .def_77 .def_6))) (let ((.def_95 (or .def_94 .def_93))) (let ((.def_96 (not .def_95))) (let ((.def_97 (or .def_6 .def_84))) (let ((.def_98 (not .def_97))) (let ((.def_99 (and .def_9 A13))) (let ((.def_100 (not .def_99))) (let ((.def_101 (or .def_100 .def_98))) (let ((.def_102 (not .def_101))) (let ((.def_103 (and .def_102 .def_96))) (let ((.def_104 (not .def_103))) (let ((.def_105 (or .def_66 A24))) (let ((.def_106 (and A18 .def_1))) (let ((.def_107 (not .def_106))) (let ((.def_108 (or .def_107 .def_105))) (let ((.def_109 (not .def_108))) (let ((.def_110 (and A23 .def_80))) (let ((.def_111 (not .def_110))) (let ((.def_112 (and A0 A10))) (let ((.def_113 (and .def_112 .def_111))) (let ((.def_114 (and .def_113 .def_109))) (let ((.def_115 (not .def_114))) (let ((.def_116 (or .def_115 .def_104))) (let ((.def_117 (not .def_116))) (let ((.def_118 (= .def_117 .def_90))) (let ((.def_119 (or .def_118 .def_63))) .def_119)))))))))))))))))))))))))))))))))))))))))))))))))))))))))))))))))))))))))))))))))))))))))))))))))))))))))))))))))))))))))
(check-sat)
